c 196_4_checker_5cl.cnf
c
c field = 196
c formula set type = 4_checker_5cl
c
p cnf 5 6
392 
394 
396 
398 
-400 
393 
395 
397 
399 
-401 
300 
330 
360 
420 
-270 
301 
331 
361 
421 
-271 
278 
306 
334 
362 
-250 
279 
307 
335 
363 
-251 
